submitit INFO (2023-05-02 18:49:40,313) - Starting with JobEnvironment(job_id=27734, hostname=cpunode3, local_rank=1(5), node=0(1), global_rank=1(5))
submitit INFO (2023-05-02 18:49:40,313) - Loading pickle: /h/30/pashootan/Matrix-Mult-CP/src/../logs/4/2x2x3_11_May02_18:49:38/27734_submitted.pkl
 ! --------------------------------------------------- CP Optimizer 22.1.1.0 --
 ! Satisfiability problem - 176 variables, 144 constraints
 ! TimeLimit            = 7200
 ! Workers              = 8
 ! LogPeriod            = 10000000
 ! RandomSeed           = 7388
 ! Initial process time : 0.02s (0.02s extraction + 0.00s propagation)
 !  . Log search space  : 279.0 (before), 279.0 (after)
 !  . Memory usage      : 821.3 kB (before), 821.3 kB (after)
 ! Using parallel search with 8 workers.
 ! ----------------------------------------------------------------------------
 !               Branches  Non-fixed    W       Branch decision
                   10000k          3    1   F     0  = W1_0
                   10000k          4    6   F    -1  = U2_0
                   10000k          5    4         0  = V5_2
                   10000k          4    2   F    -1 != W7_1
                   10000k          3    5   F     0 != V1_5
                   10000k         19    7   F    -1  = W0_3
                   10000k          8    8         0 != U3_3
                   10000k         16    3         0 != V8_0
 *                 15107k  169.00s      1         1 != W9_2
 ! ----------------------------------------------------------------------------
 ! Search completed, 1 solution found.
 ! ----------------------------------------------------------------------------
 ! Number of branches     : 119024800
 ! Number of fails        : 55354741
 ! Total memory usage     : 101.8 MB (101.8 MB CP Optimizer + 0.1 MB Concert)
 ! Time spent in solve    : 169.02s (169.00s engine + 0.02s extraction)
 ! Search speed (br. / s) : 704288.8
 ! ----------------------------------------------------------------------------
Feasible
Model is valid
Saving solution to: /h/30/pashootan/Matrix-Mult-CP/logs/4/2x2x3_11_May02_18:49:38/27734_1_solution.txt
Saving stats to: /h/30/pashootan/Matrix-Mult-CP/logs/4/2x2x3_11_May02_18:49:38/27734_1_stats.csv
submitit INFO (2023-05-02 18:52:29,979) - Job completed successfully
